NAME   JuMPModel
ROWS
 N  OBJ
 L  CON1
 L  CON2
 L  CON3
 L  CON4
 L  CON5
 L  CON6
 L  CON7
 L  CON8
 L  CON9
 L  CON10
 L  CON11
 L  CON12
 L  CON13
 L  CON14
 L  CON15
 E  CON16
 E  CON17
 E  CON18
 E  CON19
 E  CON20
 L  CON21
 L  CON22
 L  CON23
 L  CON24
 L  CON25
 L  CON26
 L  CON27
 L  CON28
 L  CON29
 L  CON30
 L  CON31
 L  CON32
 L  CON33
 L  CON34
COLUMNS
    VAR1  CON1  1
    VAR1  CON7  0
    VAR1  CON16  1
    VAR1  CON29  1
    VAR1  OBJ  1
    VAR2  CON1  1
    VAR2  CON8  1
    VAR2  CON16  1
    VAR2  CON21  -1
    VAR2  CON31  1
    VAR2  OBJ  0
    VAR3  CON1  1
    VAR3  CON9  1
    VAR3  CON16  1
    VAR3  CON23  -1
    VAR3  CON30  1
    VAR3  OBJ  0
    VAR4  CON2  1
    VAR4  CON9  -1
    VAR4  CON10  0
    VAR4  CON12  -1
    VAR4  CON15  -1
    VAR4  CON17  1
    VAR4  CON25  -1
    VAR4  CON27  -1
    VAR4  CON30  1
    VAR4  OBJ  1
    VAR5  CON3  1
    VAR5  CON8  -1
    VAR5  CON11  0
    VAR5  CON18  1
    VAR5  CON22  -1
    VAR5  CON31  1
    VAR5  OBJ  1
    VAR6  CON3  1
    VAR6  CON12  1
    VAR6  CON18  1
    VAR6  CON24  -1
    VAR6  CON26  -1
    VAR6  CON30  1
    VAR6  OBJ  0
    VAR7  CON4  1
    VAR7  CON13  0
    VAR7  CON17  1
    VAR7  CON32  1
    VAR7  OBJ  1
    VAR8  CON5  1
    VAR8  CON14  0
    VAR8  CON18  1
    VAR8  CON33  1
    VAR8  OBJ  1
    VAR9  CON5  1
    VAR9  CON15  1
    VAR9  CON18  1
    VAR9  CON28  -1
    VAR9  CON30  1
    VAR9  OBJ  0
    VAR10  CON21  1
    VAR10  CON22  1
    VAR10  CON31  -1
    VAR10  OBJ  0
    VAR11  CON23  1
    VAR11  CON24  1
    VAR11  CON30  -1
    VAR11  OBJ  0
    VAR12  CON25  1
    VAR12  CON26  1
    VAR12  CON30  -1
    VAR12  OBJ  0
    VAR13  CON27  1
    VAR13  CON28  1
    VAR13  CON30  -1
    VAR13  OBJ  0
RHS
    rhs    CON1    1
    rhs    CON2    1
    rhs    CON3    1
    rhs    CON4    1
    rhs    CON5    1
    rhs    CON6    1
    rhs    CON7    0
    rhs    CON8    0
    rhs    CON9    0
    rhs    CON10    0
    rhs    CON11    0
    rhs    CON12    0
    rhs    CON13    0
    rhs    CON14    0
    rhs    CON15    0
    rhs    CON16    1
    rhs    CON17    1
    rhs    CON18    1
    rhs    CON19    0
    rhs    CON20    0
    rhs    CON21    0
    rhs    CON22    0
    rhs    CON23    0
    rhs    CON24    0
    rhs    CON25    0
    rhs    CON26    0
    rhs    CON27    0
    rhs    CON28    0
    rhs    CON29    1
    rhs    CON30    1
    rhs    CON31    1
    rhs    CON32    1
    rhs    CON33    1
    rhs    CON34    1
BOUNDS
  UP BOUND VAR1 1
  UP BOUND VAR2 1
  UP BOUND VAR3 1
  UP BOUND VAR4 1
  UP BOUND VAR5 1
  UP BOUND VAR6 1
  UP BOUND VAR7 1
  UP BOUND VAR8 1
  UP BOUND VAR9 1
  UP BOUND VAR10 1
  UP BOUND VAR11 1
  UP BOUND VAR12 1
  UP BOUND VAR13 1
ENDATA
